&CONTROL
calculation = 'vc-relax'
prefix ='Al'
outdir = './work'
pseudo_dir= '/home/mainadmin/research/toby/pseudo'
/

&SYSTEM
ibrav = 0
nat = 4
ntyp = 3
ecutwfc=70
ecutrho=280
/

&ELECTRONS
conv_thr = 1d-8
mixing_beta = 0.5
/

&IONS
/

&CELL
cell_dofree = '2Dxy'
/

ATOMIC_SPECIES
Al 26.98 Al.pbe-n-kjpaw_psl.1.0.0.UPF
S  32.07 S.pbe-n-kjpaw_psl.1.0.0.UPF
Te 127.60 Te.pbe-n-kjpaw_psl.1.0.0.UPF

CELL_PARAMETERS {angstrom}
 1.97500000000  3.42080034495  0.000000000000
 3.95000000000  0.00000000000  0.000000000000
 0.00000000000  0.00000000000  25.00000000000

ATOMIC_POSITIONS {crystal}
 Al 0.0000000  0.00000000  0.00000000
 Al 0.0000000  0.00000000  -0.10280000
 S  0.6666667  0.66666667  0.06000000
 Te 0.6666667  0.66666667  -0.16280000
