&BANDS
prefix  = 'Al'
outdir  = './work'
filband = 'Al.bands'
